12242.0 1393178.0 
12253.0 1392927.0 
12249.0 1393106.0 
12609.0 1383164.0 
12385.0 1386784.0 
12316.0 1390387.0 
12154.0 1406115.0 
12216.0 1393774.0 
12419.0 1386118.0 
12134.0 1413760.0 
12222.0 1393290.0 
12444.0 1385250.0 
12155.0 1401192.0 
12129.0 1413811.0 
12278.0 1391739.0 
12580.0 1384219.0 
12170.0 1397105.0 
12138.0 1408317.0 
12260.0 1392351.0 
12596.0 1383954.0 
12324.0 1387754.0 
12288.0 1390626.0 
12361.0 1386843.0 
12435.0 1386020.0 
12176.0 1394876.0 
12169.0 1399194.0 
